(set-logic HORN)
(declare-fun state (Int (Array Int Int) (Array Int Int) Int Int (Array Int Int) (Array Int Int) Int Int Int Int Int Int Int Int Int Int Int Int Bool Bool Bool (Array Int Int) Int Int (Array Int Int) Int Int) Bool)
(assert (forall ((|A| Int) (|U| (Array Int Int)) (|C| (Array Int Int)) (|V| Int) (|E| Int) (|F| (Array Int Int)) (|G| (Array Int Int)) (|W| Int) (|I| Int) (|J| Int) (|K| Int) (|L| Int) (|M| Int) (|N| Int) (|O| Int) (|P| Int) (|Q| Int) (|R| Int) (|S| Int) (|T| Bool) (|.loc.3| Bool) (|.loc.4| Bool) (|U_0| (Array Int Int)) (|Y_0| Int) (|W_1| Int) (|U_1| (Array Int Int)) (|Z_0| Int) (|V_1| Int) (|.x.69| Int) (|.x.67| (Array Int Int)) (|.x.65| Int) (|.x.61| Int) (|.x.63| (Array Int Int)) (|.loc.5| Bool) (|.loc.6| Bool) (|.x.71| Int) (|.x.77| Int) (|.x.70| Int) (|.x.72| Int) (|.x.74| Int) (|.x.78| Int) (|.x.62| (Array Int Int)) (|.x.66| (Array Int Int)) (|.x.73| Int) (|.x.79| Int) (|.x.68| Int) (|.x.64| Int) (|T_3| Bool) (|.x.75| Int) (|.x.76| Int) (|.xtv.1| (Array Int Int)) (|.xtv.2| Int) (|.xtv.3| Int) (|.xtv.4| (Array Int Int)) (|.xtv.5| Int) (|.xtv.6| Int)) (=> (and (and (not .loc.4) (not .loc.3)) (and (and (and (and (= F G) (not T)) (= V E)) (= U C)) (= W I))) (state |A| |U| |C| |V| |E| |F| |G| |W| |I| |J| |K| |L| |M| |N| |O| |P| |Q| |R| |S| |T| |.loc.3| |.loc.4| |U_0| |Y_0| |W_1| |U_1| |Z_0| |V_1|))))
(assert (forall ((|A| Int) (|U| (Array Int Int)) (|C| (Array Int Int)) (|V| Int) (|E| Int) (|F| (Array Int Int)) (|G| (Array Int Int)) (|W| Int) (|I| Int) (|J| Int) (|K| Int) (|L| Int) (|M| Int) (|N| Int) (|O| Int) (|P| Int) (|Q| Int) (|R| Int) (|S| Int) (|T| Bool) (|.loc.3| Bool) (|.loc.4| Bool) (|U_0| (Array Int Int)) (|Y_0| Int) (|W_1| Int) (|U_1| (Array Int Int)) (|Z_0| Int) (|V_1| Int) (|.x.69| Int) (|.x.67| (Array Int Int)) (|.x.65| Int) (|.x.61| Int) (|.x.63| (Array Int Int)) (|.loc.5| Bool) (|.loc.6| Bool) (|.x.71| Int) (|.x.77| Int) (|.x.70| Int) (|.x.72| Int) (|.x.74| Int) (|.x.78| Int) (|.x.62| (Array Int Int)) (|.x.66| (Array Int Int)) (|.x.73| Int) (|.x.79| Int) (|.x.68| Int) (|.x.64| Int) (|T_3| Bool) (|.x.75| Int) (|.x.76| Int) (|.xtv.1| (Array Int Int)) (|.xtv.2| Int) (|.xtv.3| Int) (|.xtv.4| (Array Int Int)) (|.xtv.5| Int) (|.xtv.6| Int)) (=> (and (state |A| |U| |C| |V| |E| |F| |G| |W| |I| |J| |K| |L| |M| |N| |O| |P| |Q| |R| |S| |T| |.loc.3| |.loc.4| |U_0| |Y_0| |W_1| |U_1| |Z_0| |V_1|) (let ((.def_39 (not .loc.3))) (let ((.def_72 (= .x.71 .x.77))) (let ((.def_75 (= .x.70 .x.72))) (let ((.def_80 (store U_0 .x.74 1))) (let ((.def_133 (or T (and (= U_0 (store U 0 0)) (and (= .x.68 0) (= .x.64 0)))))) (let ((.def_137 (= O .x.75))) (let ((.def_158 (= T T_3))) (let ((.def_176 (store U_0 W_1 1))) (let ((.def_228 (not .loc.6))) (and (and (not .loc.4) (and (= I .x.69) (and (= G .x.67) (and (= E .x.65) (and (= A .x.61) (= C .x.63)))))) (or (or (and (and (not .loc.5) .loc.6) (or (and .def_39 (and (or T (and .def_72 .def_75)) (and (or T (and (= (store .def_80 .x.78 1) .x.62) (and (= (store (store F .x.74 4) .x.78 4) .x.66) (and (= (select .def_80 .x.78) 0) (and (= (select U_0 .x.74) 0) (and (= .x.73 0) (and (= .x.79 0) (and (= .x.71 .x.78) (and (not (= .x.74 0)) (and (= .x.77 .x.74) (and (not (= .x.78 0)) (and (= .x.72 .x.79) (and (= .x.70 .x.73) (and (not (<= .x.61 .x.78)) (not (<= .x.61 .x.74)))))))))))))))) (and (and .def_133 T_3) .def_137)))) (and (or T (= P .x.75)) (and (= U .x.62) (and (= V .x.64) (and (= F .x.66) (and (= W .x.68) (and (= J .x.70) (and (= K .x.71) (and (= L .x.72) (and (= M .x.73) (and (= N .x.74) (and (= P .x.76) (and (= Q .x.77) (and (= R .x.78) (and (= S .x.79) (and .loc.3 .def_158))))))))))))))))) (and (or T_3 (and (= U_1 (store .def_176 Y_0 1)) (and (and (= (select .def_176 Y_0) 0) (and (= (select U_0 W_1) 0) (and (= V_1 0) (and (= Z_0 0) (and (and (not (= W_1 0)) (and (and (not (= Y_0 0)) (and (and (and (not (<= .x.61 W_1)) (not (<= .x.61 Y_0))) (= V_1 .x.70)) (= Z_0 .x.72))) (= W_1 .x.77))) (= Y_0 .x.71)))))) (= .x.66 (store (store F W_1 4) Y_0 4))))) (and (or T_3 (and (and (or (not .def_72) (not .def_75)) (= .x.76 0)) (= .x.62 (store (store U_1 W_1 0) Y_0 0)))) (and (and .def_158 (and .loc.5 (and .def_39 (and .def_133 .def_137)))) .def_228)))) (and .def_228 (and .loc.5 (and .def_39 (and .def_137 (and .def_133 (and T T_3)))))))))))))))))) (state |.x.61| |.x.62| |.x.63| |.x.64| |.x.65| |.x.66| |.x.67| |.x.68| |.x.69| |.x.70| |.x.71| |.x.72| |.x.73| |.x.74| |.x.75| |.x.76| |.x.77| |.x.78| |.x.79| |T_3| |.loc.5| |.loc.6| |.xtv.1| |.xtv.2| |.xtv.3| |.xtv.4| |.xtv.5| |.xtv.6|))))
(assert (forall ((|A| Int) (|U| (Array Int Int)) (|C| (Array Int Int)) (|V| Int) (|E| Int) (|F| (Array Int Int)) (|G| (Array Int Int)) (|W| Int) (|I| Int) (|J| Int) (|K| Int) (|L| Int) (|M| Int) (|N| Int) (|O| Int) (|P| Int) (|Q| Int) (|R| Int) (|S| Int) (|T| Bool) (|.loc.3| Bool) (|.loc.4| Bool) (|U_0| (Array Int Int)) (|Y_0| Int) (|W_1| Int) (|U_1| (Array Int Int)) (|Z_0| Int) (|V_1| Int) (|.x.69| Int) (|.x.67| (Array Int Int)) (|.x.65| Int) (|.x.61| Int) (|.x.63| (Array Int Int)) (|.loc.5| Bool) (|.loc.6| Bool) (|.x.71| Int) (|.x.77| Int) (|.x.70| Int) (|.x.72| Int) (|.x.74| Int) (|.x.78| Int) (|.x.62| (Array Int Int)) (|.x.66| (Array Int Int)) (|.x.73| Int) (|.x.79| Int) (|.x.68| Int) (|.x.64| Int) (|T_3| Bool) (|.x.75| Int) (|.x.76| Int) (|.xtv.1| (Array Int Int)) (|.xtv.2| Int) (|.xtv.3| Int) (|.xtv.4| (Array Int Int)) (|.xtv.5| Int) (|.xtv.6| Int)) (=> (state |A| |U| |C| |V| |E| |F| |G| |W| |I| |J| |K| |L| |M| |N| |O| |P| |Q| |R| |S| |T| |.loc.3| |.loc.4| |U_0| |Y_0| |W_1| |U_1| |Z_0| |V_1|) (not (and T (and .loc.4 (not .loc.3)))))))
(check-sat)
